
  32    1
  10

   0   0  10 2 3 4 5 6 8 9 14 21 22 
   7   8   6 17 16 12 11 10 7 
  10  10   8 31 30 29 18 17 16 13 11 
   1   5   4 16 15 10 7 
   8   8   6 27 26 17 12 11 10 
   7   4   7 31 30 29 24 19 16 15 
   8   5   7 30 28 27 25 24 19 18 
   5   9   5 31 24 23 20 15 
   6   9   5 29 28 24 17 15 
   2   9   3 29 24 23 
   9  10   2 24 15 
   6   5   2 24 23 
   8   8   2 27 23 
   4  10   2 28 23 
   4  10   1 25 
   3  10   1 26 
   7  10   1 25 
   6  10   1 26 
   3   7   1 23 
   4   7   1 28 
   9  10   1 27 
   8  10   1 26 
   1  10   1 32
   1   9   1 32
   5   8   1 32
   2   4   1 32
   2   9   1 32
   4   6   1 32
   8   5   1 32
  10   8   1 32
   2   7   1 32
   0   0   0 
